
  32    4
  10   10   10   10

   0   0   0   0   0   7 2 3 5 7 11 12 14 
   3  10  10  10  10   5 15 13 10 9 6 
  10  10  10  10  10   2 15 4 
   4  10  10  10  10   4 16 13 9 8 
   6  10  10  10  10   3 23 15 13 
   3  10  10  10  10   5 23 21 19 17 16 
   5  10  10  10  10   4 31 19 18 9 
   7  10  10  10  10   4 23 21 18 17 
   3  10  10  10  10   4 23 22 21 17 
   1  10  10  10  10   3 31 18 17 
   5  10  10  10  10   2 19 16 
   3  10  10  10  10   1 13 
   4  10  10  10  10   3 24 21 19 
   1  10  10  10  10   3 31 19 18 
   6  10  10  10  10   2 20 16 
   9  10  10  10  10   2 31 18 
   4  10  10  10  10   3 30 25 20 
   9  10  10  10  10   4 29 28 25 22 
   9  10  10  10  10   4 30 29 28 22 
   4  10  10  10  10   4 29 28 27 26 
   2  10  10  10  10   4 30 28 27 26 
   9  10  10  10  10   2 27 26 
   5  10  10  10  10   2 27 26 
   5  10  10  10  10   1 25 
   6  10  10  10  10   1 26 
   9  10  10  10  10   1 32
   1  10  10  10  10   1 32
   7  10  10  10  10   1 32
   7  10  10  10  10   1 32
   6  10  10  10  10   1 32
   1  10  10  10  10   1 32
   0   0   0   0   0   0 
